NAME : E-n101-k8
COMMENT : (Christophides and Eilon, Min no of trucks: 8, Best value: 817)
TYPE : CVRP
DIMENSION : 101
EDGE_WEIGHT_TYPE : EUC_2D
CAPACITY : 200
NODE_COORD_SECTION
1 35 35
2 41 49
3 35 17
4 55 45
5 55 20
6 15 30
7 25 30
8 20 50
9 10 43
10 55 60
11 30 60
12 20 65
13 50 35
14 30 25
15 15 10
16 30 5
17 10 20
18 5 30
19 20 40
20 15 60
21 45 65
22 45 20
23 45 10
24 55 5
25 65 35
26 65 20
27 45 30
28 35 40
29 41 37
30 64 42
31 40 60
32 31 52
33 35 69
34 53 52
35 65 55
36 63 65
37 2 60
38 20 20
39 5 5
40 60 12
41 40 25
42 42 7
43 24 12
44 23 3
45 11 14
46 6 38
47 2 48
48 8 56
49 13 52
50 6 68
51 47 47
52 49 58
53 27 43
54 37 31
55 57 29
56 63 23
57 53 12
58 32 12
59 36 26
60 21 24
61 17 34
62 12 24
63 24 58
64 27 69
65 15 77
66 62 77
67 49 73
68 67 5
69 56 39
70 37 47
71 37 56
72 57 68
73 47 16
74 44 17
75 46 13
76 49 11
77 49 42
78 53 43
79 61 52
80 57 48
81 56 37
82 55 54
83 15 47
84 14 37
85 11 31
86 16 22
87 4 18
88 28 18
89 26 52
90 26 35
91 31 67
92 15 19
93 22 22
94 18 24
95 26 27
96 25 24
97 22 27
98 25 21
99 19 21
100 20 26
101 18 18
DEMAND_SECTION
1 0
2 10
3 7
4 13
5 19
6 26
7 3
8 5
9 9
10 16
11 16
12 12
13 19
14 23
15 20
16 8
17 19
18 2
19 12
20 17
21 9
22 11
23 18
24 29
25 3
26 6
27 17
28 16
29 16
30 9
31 21
32 27
33 23
34 11
35 14
36 8
37 5
38 8
39 16
40 31
41 9
42 5
43 5
44 7
45 18
46 16
47 1
48 27
49 36
50 30
51 13
52 10
53 9
54 14
55 18
56 2
57 6
58 7
59 18
60 28
61 3
62 13
63 19
64 10
65 9
66 20
67 25
68 25
69 36
70 6
71 5
72 15
73 25
74 9
75 8
76 18
77 13
78 14
79 3
80 23
81 6
82 26
83 16
84 11
85 7
86 41
87 35
88 26
89 9
90 15
91 3
92 1
93 2
94 22
95 27
96 20
97 11
98 12
99 10
100 9
101 17
DEPOT_SECTION
 1
 -1
NODE_PRIORITY_SECTION
1 0
2 3
3 3
4 4
5 4
6 4
7 4
8 4
9 2
10 3
11 4
12 4
13 5
14 4
15 3
16 2
17 3
18 2
19 2
20 4
21 2
22 3
23 1
24 2
25 4
26 3
27 4
28 3
29 4
30 4
31 3
32 4
33 3
34 4
35 3
36 2
37 2
38 5
39 1
40 3
41 3
42 1
43 4
44 2
45 3
46 1
47 1
48 3
49 3
50 2
51 4
52 3
53 3
54 3
55 5
56 4
57 3
58 3
59 3
60 5
61 3
62 4
63 5
64 4
65 2
66 1
67 1
68 1
69 5
70 3
71 3
72 2
73 3
74 3
75 3
76 2
77 5
78 5
79 3
80 4
81 5
82 3
83 3
84 2
85 3
86 5
87 2
88 4
89 4
90 3
91 4
92 4
93 5
94 5
95 4
96 5
97 4
98 5
99 5
100 5
101 5
EOF
